(set-logic QF_S)
(declare-fun var0 () String)
(declare-fun var1 () String)
(declare-fun var2 () String)
(declare-fun var3 () String)
(declare-fun var4 () Int)
(declare-fun var5 () Int)
(declare-fun var6 () Int)
(declare-fun var7 () Int)
(assert (> (str.indexof (str.at var0 21) (str.replace var1 var2 var3) (str.len var0)) (str.indexof (str.at var1 var4) (str.at var3 var5) (str.len var2))))
(assert (str.in.re (str.replace var1 var1 "LG<") (re.+ (re.+ re.allchar))))
(assert (str.suffixof (str.substr (str.at var0 var6) (str.indexof var2 var2 var7) (str.indexof var3 var3 var5)) (str.replace (str.replace var0 var1 var0) (str.at var0 var7) (str.replace "" var0 var3))))
(assert (str.contains (str.substr (str.at var0 var6) (str.indexof var1 var1) (str.to.int var3)) (str.at "@}12" var4)))
(check-sat)